Academic license - for non-commercial use only
Optimize a model with 109 rows, 198 columns and 596 nonzeros
Variable types: 0 continuous, 198 integer (198 binary)
Coefficient statistics:
  Matrix range     [1e+00, 1e+00]
  Objective range  [7e-01, 5e+02]
  Bounds range     [1e+00, 1e+00]
  RHS range        [1e+00, 3e+00]
Found heuristic solution: objective 444.6681000
Presolve removed 56 rows and 0 columns
Presolve time: 0.00s
Presolved: 53 rows, 198 columns, 396 nonzeros
Variable types: 0 continuous, 198 integer (198 binary)

Root relaxation: objective 1.535341e+03, 1 iterations, 0.00 seconds

    Nodes    |    Current Node    |     Objective Bounds      |     Work
 Expl Unexpl |  Obj  Depth IntInf | Incumbent    BestBd   Gap | It/Node Time

*    0     0               0    1535.3414000 1535.34140  0.00%     -    0s

Explored 0 nodes (1 simplex iterations) in 0.00 seconds
Thread count was 8 (of 8 available processors)

Solution count 2: 1535.34 444.668 

Optimal solution found (tolerance 1.00e-04)
Best objective 1.535341400000e+03, best bound 1.535341400000e+03, gap 0.0000%
Obj: 1535.34
